sifdecoder -A pc64.lnx.gfo -st   STEENBRC

 Problem name: STEENBRC

 Double precision version will be formed

 The objective function uses 1 nonlinear group
 
 There are 126 linear equality constraints
 
 There are 540 variables bounded only from below 
 
 
 File successfully decoded
 CUTEST: tools (double precision version) compiled successfully
 CUTEst: ipopt (double precision version) compiled successfully

******************************************************************************
This program contains Ipopt, a library for large-scale nonlinear optimization.
 Ipopt is released as open source code under the Eclipse Public License (EPL).
         For more information visit http://projects.coin-or.org/Ipopt
******************************************************************************

This is Ipopt version trunk, running with linear solver ma57.

Number of nonzeros in equality constraint Jacobian...:     1008
Number of nonzeros in inequality constraint Jacobian.:        0
Number of nonzeros in Lagrangian Hessian.............:     4320

Reallocating memory for MA57: lfact (224385)
Total number of variables............................:      540
                     variables with only lower bounds:      540
                variables with lower and upper bounds:        0
                     variables with only upper bounds:        0
Total number of equality constraints.................:      126
Total number of inequality constraints...............:        0
        inequality constraints with only lower bounds:        0
   inequality constraints with lower and upper bounds:        0
        inequality constraints with only upper bounds:        0

iter    objective    inf_pr   inf_du lg(mu)  ||d||  lg(rg) alpha_du alpha_pr  ls
   0  4.5283061e+03 1.00e+04 1.01e+02  -1.0 0.00e+00    -  0.00e+00 0.00e+00   0
   1  4.5278901e+03 1.00e+04 1.01e+02  -1.0 1.76e+03    -  5.64e-05 5.64e-05h  1
   2  5.5325035e+03 1.00e+04 1.01e+02  -1.0 4.63e+03    -  4.27e-05 2.73e-04h  1
   3  8.7523432e+03 9.99e+03 1.01e+02  -1.0 4.95e+03    -  2.39e-04 6.43e-04h  1
   4  2.0139854e+04 9.97e+03 1.01e+02  -1.0 5.05e+03    -  6.28e-04 2.01e-03h  1
   5  5.3188207e+04 9.91e+03 1.01e+02  -1.0 5.18e+03    -  1.46e-03 5.81e-03h  1
   6  1.4749873e+05 9.75e+03 1.00e+02  -1.0 5.75e+03    -  5.96e-03 1.68e-02h  1
   7  6.0930917e+05 8.88e+03 9.92e+01  -1.0 1.09e+04    -  1.20e-02 8.92e-02h  1
   8  6.9322180e+05 8.69e+03 9.74e+01  -1.0 7.31e+03    -  1.10e-02 2.09e-02h  1
   9  8.0797074e+05 8.44e+03 9.49e+01  -1.0 4.60e+03    -  1.15e-02 2.89e-02h  1
iter    objective    inf_pr   inf_du lg(mu)  ||d||  lg(rg) alpha_du alpha_pr  ls
  10  8.3779129e+05 8.33e+03 9.35e+01  -1.0 1.10e+05    -  1.52e-03 1.35e-02h  1
  11  8.3668629e+05 8.14e+03 9.17e+01  -1.0 8.02e+04    -  1.91e-04 2.29e-02f  1
  12  1.0268077e+06 7.59e+03 8.73e+01  -1.0 5.54e+03  -4.0 5.15e-02 6.69e-02h  1
  13  9.7656509e+05 7.51e+03 8.64e+01  -1.0 1.98e+05    -  1.93e-03 1.05e-02f  1
  14  1.2917348e+06 6.49e+03 7.92e+01  -1.0 3.80e+03  -4.5 9.07e-03 1.35e-01h  1
  15  1.2875814e+06 6.49e+03 7.92e+01  -1.0 6.42e+05    -  4.70e-03 8.15e-04f  1
  16  1.2990916e+06 6.44e+03 7.86e+01  -1.0 7.17e+03    -  2.91e-01 7.57e-03h  1
  17  2.0718343e+06 3.30e+03 6.18e+01  -1.0 6.43e+03    -  3.45e-01 4.88e-01h  1
  18  2.0622717e+06 8.54e+02 4.87e+01  -1.0 3.30e+03    -  4.52e-02 7.41e-01f  1
  19  1.8753086e+06 8.10e+02 3.77e+01  -1.0 1.95e+04    -  4.60e-04 5.16e-02f  1
iter    objective    inf_pr   inf_du lg(mu)  ||d||  lg(rg) alpha_du alpha_pr  ls
  20  1.8741474e+06 8.10e+02 3.77e+01  -1.0 1.81e+05    -  5.55e-03 7.87e-05f  1
  21  1.8362461e+06 8.02e+02 3.73e+01  -1.0 2.32e+04    -  6.49e-02 1.03e-02f  1
  22  1.7465487e+06 7.30e+02 3.42e+01  -1.0 8.00e+02    -  1.67e-01 8.99e-02f  1
  23  1.2599347e+06 2.46e+02 1.93e+01  -1.0 7.43e+02    -  1.14e-02 6.63e-01f  1
  24  1.1899999e+06 2.33e+02 1.83e+01  -1.0 6.02e+04    -  2.61e-03 5.26e-02f  1
  25  1.0493004e+06 1.87e+02 1.52e+01  -1.0 1.51e+04    -  2.30e-03 1.95e-01f  1
  26  1.0491059e+06 1.87e+02 1.52e+01  -1.0 1.97e+05    -  2.07e-02 1.97e-04f  1
  27  9.2339692e+05 1.48e+02 1.24e+01  -1.0 9.84e+02    -  7.11e-03 2.10e-01f  1
  28  9.0216091e+05 1.42e+02 1.19e+01  -1.0 9.69e+02    -  6.23e-02 3.70e-02f  1
  29  8.2205843e+05 1.21e+02 1.03e+01  -1.0 8.90e+02    -  1.90e-02 1.51e-01f  1
iter    objective    inf_pr   inf_du lg(mu)  ||d||  lg(rg) alpha_du alpha_pr  ls
  30  6.4550376e+05 7.10e+01 7.01e+00  -1.0 9.46e+02    -  7.15e-03 4.13e-01f  1
  31  5.5612095e+05 5.34e+01 5.53e+00  -1.0 1.05e+03    -  3.84e-03 2.47e-01f  1
  32  4.4184193e+05 3.24e+01 3.83e+00  -1.0 1.17e+03    -  8.56e-03 3.94e-01f  1
  33  3.5786469e+05 2.06e+01 2.72e+00  -1.0 1.28e+03    -  7.63e-03 3.63e-01f  1
  34  2.8209648e+05 1.19e+01 2.73e+00  -1.0 1.45e+03    -  2.80e-02 4.21e-01f  1
  35  1.7153746e+05 2.44e-09 3.05e+00  -1.0 1.64e+03    -  1.90e-02 1.00e+00f  1
  36  1.1381772e+05 1.32e-09 7.15e-01  -1.0 2.18e+03    -  7.64e-01 8.87e-01f  1
  37  7.6495447e+04 2.37e-10 5.70e-01  -1.7 2.82e+03    -  3.10e-01 1.00e+00f  1
  38  5.5612330e+04 1.09e-10 2.62e-01  -1.7 3.75e+03    -  5.79e-01 1.00e+00f  1
  39  4.7655736e+04 7.02e-11 1.54e-01  -1.7 4.97e+03    -  4.28e-01 5.80e-01f  1
iter    objective    inf_pr   inf_du lg(mu)  ||d||  lg(rg) alpha_du alpha_pr  ls
  40  3.9412598e+04 2.28e-11 1.32e-01  -2.5 5.89e+03    -  2.95e-01 1.00e+00f  1
  41  3.4826828e+04 1.11e-11 1.14e-01  -2.5 7.77e+03    -  2.42e-01 1.00e+00f  1
  42  3.4359671e+04 8.20e-12 5.14e-02  -2.5 4.63e+02  -5.0 5.60e-01 1.00e+00f  1
  43  3.3966361e+04 5.16e-12 3.96e-02  -2.5 1.16e+03  -5.4 2.52e-01 5.20e-01f  1
  44  3.3465130e+04 5.78e-12 3.99e-02  -2.5 2.36e+03  -5.9 4.93e-02 4.19e-01f  1
  45  3.3208508e+04 4.85e-12 2.94e-02  -2.5 3.75e+03  -6.4 2.46e-01 1.52e-01f  1
  46  3.2519501e+04 1.19e-11 3.01e-02  -2.5 4.65e+03  -6.9 5.55e-02 3.36e-01f  1
  47  3.2246260e+04 3.17e-11 6.86e-03  -2.5 2.71e+04    -  6.79e-01 1.53e-01f  1
  48  3.1319224e+04 5.12e-11 8.18e-03  -3.8 1.14e+04    -  6.54e-02 5.57e-01f  1
  49  3.0946156e+04 9.02e-11 4.29e-03  -3.8 1.30e+04    -  7.67e-01 2.94e-01f  1
iter    objective    inf_pr   inf_du lg(mu)  ||d||  lg(rg) alpha_du alpha_pr  ls
  50  3.0346944e+04 1.76e-11 1.46e+02  -3.8 1.39e+04    -  1.00e+00 8.15e-01f  1
  51  3.0343857e+04 1.75e-11 1.46e+02  -3.8 1.75e+02  -5.5 5.88e-02 1.83e-04f  1
  52  3.0336263e+04 1.73e-11 1.97e+02  -3.8 1.58e+04    -  7.44e-01 6.71e-03f  1
  53  2.9942030e+04 7.42e-11 1.06e+02  -3.8 1.58e+04    -  1.00e+00 7.57e-01f  1
  54  2.9941921e+04 7.42e-11 5.19e+01  -3.8 2.59e+02  -6.0 1.00e+00 1.67e-03f  1
  55  2.9918246e+04 4.80e-12 2.32e+01  -3.8 9.82e+01  -5.6 1.00e+00 8.89e-01f  1
  56  2.9692959e+04 2.17e-10 8.12e+00  -3.8 1.76e+04    -  6.84e-01 1.00e+00f  1
  57  2.9605428e+04 1.69e-11 1.24e+00  -3.8 2.01e+04    -  8.76e-01 1.00e+00f  1
  58  2.9605413e+04 1.57e-11 2.81e-01  -3.8 4.29e+01  -6.1 8.33e-01 6.87e-02f  2
  59  2.9579291e+04 2.33e-12 1.84e-01  -3.8 1.95e+04    -  1.20e-01 1.00e+00f  1
iter    objective    inf_pr   inf_du lg(mu)  ||d||  lg(rg) alpha_du alpha_pr  ls
  60  2.9574155e+04 1.28e-11 6.01e-02  -3.8 1.33e+04    -  6.55e-01 1.00e+00f  1
  61  2.9574228e+04 3.70e-12 6.80e-02  -3.8 8.27e+00  -6.5 1.00e+00 7.05e-01f  1
  62  2.9573951e+04 2.50e-12 2.00e-02  -3.8 4.41e+03    -  7.26e-01 1.00e+00f  1
  63  2.9573999e+04 9.81e-13 1.33e-02  -3.8 5.67e+00  -7.0 1.00e+00 1.00e+00f  1
  64  2.9574014e+04 2.78e-12 2.55e-03  -3.8 2.94e+00  -6.6 1.00e+00 1.00e+00f  1
  65  2.9574028e+04 1.13e-11 7.31e-04  -3.8 3.63e+02    -  1.00e+00 1.00e+00f  1
  66  2.9571645e+04 5.63e-12 7.88e-02  -5.7 4.30e+01  -7.1 1.00e+00 5.07e-01f  1
  67  2.9571364e+04 4.96e-12 1.39e-01  -5.7 1.47e+01  -6.6 1.00e+00 1.25e-01f  1
  68  2.9570082e+04 3.45e-11 8.60e-02  -5.7 8.02e+02  -7.1 6.83e-01 5.06e-01f  1
  69  4.3614835e+06 2.22e-11 8.76e+06  -5.7 3.00e+03  -7.6 1.00e+00 3.36e-01h  1
Restoration phase is called at point that is almost feasible,
  with constraint violation 5.397532e-11. Abort.

Number of Iterations....: 69

                                   (scaled)                 (unscaled)
Objective...............:   7.9495999357623805e+04    4.3614835026321867e+06
Dual infeasibility......:   8.7624119951396026e+06    4.8074262439475429e+08
Constraint violation....:   2.2247636241937152e-11    2.2247636241937152e-11
Complementarity.........:   2.9316253430163891e-05    1.6084124575808840e-03
Overall NLP error.......:   8.7624119951396026e+06    4.8074262439475429e+08


Number of objective function evaluations             = 76
Number of objective gradient evaluations             = 71
Number of equality constraint evaluations            = 76
Number of inequality constraint evaluations          = 0
Number of equality constraint Jacobian evaluations   = 71
Number of inequality constraint Jacobian evaluations = 0
Number of Lagrangian Hessian evaluations             = 70
Total CPU secs in IPOPT (w/o function evaluations)   =      0.803
Total CPU secs in NLP function evaluations           =      0.022

EXIT: Restoration Failed!

************************ CUTEst statistics ************************


 Package used            :  IPOPT
 Problem                 :  STEENBRC  
 # variables             =             540
 # constraints           =             126
 # objective functions   =        0.1480000E+03
 # objective gradients   =        0.7200000E+02
 # objective Hessians    =        0.7100000E+02
 # Hessian-vector prdct  =        0.0000000E+00
 # constraints functions =        0.1490000E+03
 # constraints gradients =        0.7300000E+02
 # constraints Hessians  =        0.7100000E+02
 Exit code               =              -2
 Final f                 =        4.3614835026321867D+06
 Bounds feasibility      =        0.0000000000000000D+00
 Set up time             =            0.04 seconds
 Solve time              =            1.54 seconds


******************************************************************

